<number of tasks>
50

<cycle time>
1000

<order strength>
0.195


<task times>
1 78
2 27
3 237
4 98
5 269
6 48
7 192
8 105
9 147
10 224
11 141
12 125
13 160
14 282
15 191
16 119
17 115
18 166
19 182
20 218
21 111
22 189
23 96
24 62
25 112
26 121
27 74
28 173
29 193
30 127
31 103
32 142
33 98
34 271
35 248
36 146
37 99
38 131
39 222
40 74
41 54
42 183
43 109
44 255
45 218
46 154
47 26
48 65
49 216
50 35

<precedence relations>
1,35
3,12
3,14
4,8
4,10
4,13
5,31
6,11
7,9
7,27
8,42
9,17
10,19
10,20
12,15
12,29
13,16
14,18
15,21
18,21
19,23
20,22
20,24
21,26
22,25
22,35
23,27
23,28
23,29
23,31
24,29
24,30
25,37
26,33
29,35
30,32
30,34
30,36
31,41
33,40
33,42
34,41
34,44
34,50
35,38
35,39
35,48
36,43
38,50
39,45
42,46
43,47
43,48
43,49

<end>
